capacity=800; 
max_resources=6; 
max_positions=656; 
object_size_in_x=[290, 290, 290, 290, 290, 145]; 
position_profit=[0, 21315, 21170, 21170, 21170, 21170, 21170, 21170, 21170, 21170, 21170, 21170, 21170, 21170, 21170, 21170, 21170, 21170, 21170, 21170, 21170, 21170, 21170, 21170, 21170, 21170, 21170, 21170, 21170, 21170, 21170, 21170, 21170, 21170, 21170, 21170, 21170, 21170, 21170, 21170, 21170, 21170, 21170, 21170, 21170, 21170, 21170, 21170, 21170, 21170, 21170, 21170, 21170, 21170, 21170, 21170, 21170, 21170, 21170, 21170, 21170, 21170, 21170, 21170, 21170, 21170, 21170, 21170, 21170, 21170, 21170, 21170, 21170, 21170, 21170, 21170, 21170, 21170, 21170, 21170, 21170, 21170, 21170, 21170, 21170, 21170, 21170, 21170, 21170, 21170, 21170, 21170, 21170, 21170, 21170, 21170, 21170, 21170, 21170, 21170, 21170, 21170, 21170, 21170, 21170, 21170, 21170, 21170, 21170, 21170, 21170, 21170, 21170, 21170, 21170, 21170, 21170, 21170, 21170, 21170, 21170, 21170, 21170, 21170, 21170, 21170, 21170, 21170, 21170, 21170, 21170, 21170, 21170, 21170, 21170, 21170, 21170, 21170, 21170, 21170, 21170, 21170, 21170, 21170, 21170, 21170, 21170, 21170, 21170, 21170, 21170, 21170, 21170, 21170, 21170, 21170, 21170, 21170, 21170, 21170, 21170, 21170, 21170, 21170, 21170, 21170, 21170, 21170, 21170, 21170, 21170, 21170, 21170, 21170, 21170, 21170, 21170, 21170, 21170, 21170, 21170, 21170, 21170, 21170, 21170, 21170, 21170, 21170, 21170, 21170, 21170, 21170, 21170, 21170, 21170, 21170, 21170, 21170, 21170, 21170, 21170, 21170, 21170, 21170, 21170, 21170, 21170, 21170, 21170, 21170, 21170, 21170, 21170, 21170, 21170, 21170, 21170, 21170, 21170, 21170, 21170, 21170, 21170, 21170, 21170, 21170, 21170, 21170, 21170, 21170, 21170, 21170, 21170, 21170, 21170, 21170, 21170, 21170, 21170, 21170, 21170, 21170, 21170, 21170, 21170, 21170, 21170, 21170, 21170, 21170, 21170, 21170, 21170, 21170, 21170, 21170, 21170, 21170, 21170, 21170, 21170, 21170, 21170, 21170, 21170, 21170, 21170, 21170, 21170, 21170, 21170, 21170, 21170, 21170, 21170, 21170, 21170, 21170, 21170, 21170, 21170, 21170, 21170, 21170, 21170, 21170, 21170, 21170, 21170, 21170, 21170, 21170, 21170, 21170, 21170, 21170, 21170, 21170, 21170, 21170, 21170, 21170, 21170, 21170, 21170, 21170, 21170, 21170, 21170, 21170, 21170, 21170, 21170, 21170, 21170, 21170, 21170, 21170, 21170, 21170, 21170, 21170, 21170, 21170, 21170, 21170, 21170, 21170, 21170, 21170, 21170, 21170, 21170, 21170, 21170, 21170, 21170, 21170, 21170, 21170, 21170, 21170, 21170, 21170, 21170, 21170, 21170, 21170, 21170, 21170, 21170, 21170, 21170, 21170, 21170, 21170, 21170, 21170, 21170, 21170, 21170, 21170, 21170, 21170, 21170, 21170, 21170, 21170, 21170, 21170, 21170, 21170, 21170, 21170, 21170, 21170, 21170, 21170, 21170, 21170, 21170, 21170, 21170, 21170, 21170, 21170, 21170, 21170, 21170, 21170, 21170, 21170, 21170, 21170, 21170, 21170, 21170, 21170, 21170, 21170, 21170, 21170, 21170, 21170, 21170, 21170, 21170, 21170, 21170, 21170, 21170, 21170, 21170, 21170, 21170, 21170, 21170, 21170, 21170, 21170, 21170, 21170, 21170, 21170, 21170, 21170, 21170, 21170, 21170, 21170, 21170, 21170, 21170, 21170, 21170, 21170, 21170, 21170, 21170, 21170, 21170, 21170, 21170, 21170, 21170, 21170, 21170, 21170, 21170, 21170, 21170, 21170, 21170, 21170, 21170, 21170, 21170, 21170, 21170, 21170, 21170, 21170, 21170, 21170, 21170, 21170, 21170, 21170, 21170, 21170, 21170, 21170, 21170, 21170, 21170, 21170, 21170, 21170, 21170, 21170, 21170, 21170, 21170, 21170, 21170, 21170, 21170, 21170, 21170, 21170, 21170, 21170, 21170, 21170, 21170, 21170, 21170, 21170, 21170, 21170, 21170, 21170, 21170, 21170, 21170, 21170, 21170, 21170, 21170, 21170, 21170, 21170, 21170, 21170, 21170, 21170, 21170, 21170, 21170, 21170, 21170, 21170, 21170, 21170, 21170, 21170, 21170, 21170, 21170, 21170, 21170, 21170, 21170, 21170, 21170, 21170, 21170, 21170, 21170, 21170, 21170, 21170, 21170, 21170, 21170, 21170, 21170, 21170, 21170, 21170, 21170, 21170, 21170, 21170, 21170, 21170, 21170, 21170, 21170, 21170, 21170, 21170, 21170, 21170, 21170, 21170, 21170, 21170, 21170, 21170, 21170, 21170, 21170, 21170, 21170, 21170, 21170, 21170, 21170, 21170, 21170, 21170, 21170, 21170, 21170, 21170, 21170, 21170, 21170, 21170, 21170, 21170, 21170, 21170, 21170, 21170, 21170, 21170, 21170, 21170, 21170, 21170, 21170, 21170, 21170, 21170, 21170, 21170, 21170, 21170, 21170, 21170, 21170, 21170, 21170, 21170, 21170, 21170, 21170, 21170, 21170, 21170, 21170, 21170, 21170, 21170, 21170, 21170, 21170, 21170, 21170, 21170, 21170, 21170, 21170, 21170, 21170, 21170, 21170, 21170, 21170, 21170, 21170, 21170, 21170, 21170, 21170, 21170, 21170, 21170, 21170, 21170, 21170, 21170, 21315, 0]; 
